2
199
301
40	36
1	2	6	13	8	11	
2	2	8	6	22	3	
3	2	7	13	5	10	
4	1	7	17	
5	2	11	6	14	5	
6	2	5	9	13	8	
7	2	18	8	12	8	
8	1	33	3	
9	1	12	10	
10	1	15	4	
11	2	4	13	5	8	
12	1	15	9	
13	1	9	10	
14	1	9	8	
15	1	11	6	
16	2	14	9	20	2	
17	1	31	3	
18	2	6	15	11	8	
19	2	11	7	30	3	
20	2	8	14	29	3	
21	2	15	8	11	8	
22	2	7	16	10	7	
23	2	7	14	15	4	
24	1	4	13	
25	1	28	3	
26	1	16	3	
27	1	14	9	
28	1	7	12	
29	2	6	14	12	5	
30	1	25	3	
31	2	4	15	17	5	
32	1	19	6	
33	2	6	16	17	4	
34	2	6	9	33	3	
35	2	7	17	15	8	
36	1	23	3	
37	2	5	16	8	15	
38	1	8	10	
39	1	11	5	
40	2	5	14	15	8	
41	2	11	4	33	3	
42	1	32	3	
43	1	7	17	
44	2	11	9	9	8	
45	2	5	17	32	2	
46	1	4	18	
47	1	8	14	
48	1	8	7	
49	2	17	6	18	5	
50	1	30	3	
51	2	15	4	25	2	
52	1	19	6	
53	1	23	4	
54	2	23	4	25	3	
55	2	7	13	4	11	
56	2	7	9	15	6	
57	2	34	4	21	4	
58	2	6	15	29	4	
59	1	6	13	
60	1	5	13	
61	1	26	3	
62	2	4	14	9	7	
63	2	5	14	18	5	
64	2	8	12	8	10	
65	2	21	4	23	2	
66	1	29	3	
67	1	32	2	
68	1	32	4	
69	2	13	9	18	8	
70	1	31	3	
71	1	13	8	
72	1	25	3	
73	2	10	7	16	6	
74	2	12	4	18	3	
75	1	21	3	
76	2	6	11	12	5	
77	2	5	15	7	14	
78	2	7	17	4	13	
79	1	12	6	
80	2	5	12	14	7	
81	1	34	2	
82	1	19	5	
83	2	7	13	31	3	
84	1	8	14	
85	1	17	6	
86	1	19	4	
87	1	19	7	
88	1	6	9	
89	2	23	3	16	3	
90	1	9	5	
91	1	8	15	
92	1	18	3	
93	2	14	5	21	4	
94	1	22	2	
95	1	8	5	
96	1	5	10	
97	1	4	15	
98	1	16	4	
99	2	10	9	18	5	
100	2	9	10	5	9	
101	1	4	16	
102	1	7	10	
103	2	12	6	8	6	
104	1	25	4	
105	2	7	10	22	2	
106	1	8	13	
107	2	14	7	18	4	
108	2	7	16	18	9	
109	1	6	10	
110	1	7	12	
111	1	36	3	
112	2	29	3	20	3	
113	2	8	11	11	5	
114	1	34	4	
115	1	29	2	
116	2	5	15	24	3	
117	2	35	4	32	4	
118	2	18	8	35	2	
119	2	5	8	22	3	
120	2	6	15	17	5	
121	1	8	15	
122	2	6	10	29	3	
123	2	15	6	30	4	
124	2	7	15	32	3	
125	2	8	17	27	3	
126	2	6	10	17	6	
127	2	15	9	17	3	
128	2	9	7	15	5	
129	2	17	6	16	4	
130	2	26	3	18	3	
131	2	19	9	17	9	
132	2	15	5	31	3	
133	2	7	12	22	4	
134	2	21	4	22	3	
135	1	19	3	
136	1	12	9	
137	2	8	15	27	3	
138	2	8	11	11	5	
139	1	19	5	
140	1	8	16	
141	1	20	4	
142	2	5	9	9	5	
143	1	27	3	
144	1	18	3	
145	1	19	3	
146	2	17	8	27	3	
147	2	12	4	19	3	
148	2	15	9	14	5	
149	2	18	6	11	5	
150	1	23	3	
151	1	5	12	
152	1	4	14	
153	2	6	17	35	2	
154	1	7	11	
155	2	7	16	10	6	
156	2	6	15	11	7	
157	2	7	14	16	2	
158	2	6	8	28	2	
159	2	13	8	19	5	
160	2	7	13	8	12	
161	2	8	14	5	10	
162	2	11	7	25	4	
163	2	5	10	18	7	
164	2	12	8	35	3	
165	1	32	2	
166	2	31	4	20	4	
167	2	7	10	14	5	
168	1	7	9	
169	2	21	4	30	3	
170	1	34	4	
171	1	8	16	
172	1	17	6	
173	1	12	8	
174	1	30	2	
175	1	6	9	
176	2	14	5	22	3	
177	2	7	9	19	3	
178	1	18	7	
179	2	15	9	10	4	
180	1	17	6	
181	1	13	7	
182	1	30	2	
183	1	16	5	
184	1	26	2	
185	1	17	7	
186	2	7	17	31	4	
187	1	11	10	
188	2	22	3	20	2	
189	2	6	12	4	9	
190	1	17	3	
191	2	6	17	35	3	
192	1	18	5	
193	2	17	6	35	3	
194	2	6	14	30	2	
195	1	21	3	
196	1	6	10	
197	2	13	10	18	6	
198	1	30	3	
199	1	6	17	
